19 23 21 18 49 34 29 
98 70 2 1 45 8 60 55 
65 11 15 16 17 14 78 46 100 
52 75 74 57 99 83 66 91 
72 71 90 51 62 50 93 
27 33 76 95 92 56 
31 81 61 54 42 39 
82 69 88 44 37 38 41 96 80 
73 47 12 53 10 9 24 
64 63 85 84 67 94 68 
36 40 6 79 4 5 
77 48 30 32 28 
58 59 87 86 20 25 
13 7 3 35 
89 22 26 
43 
97 

